SCIP version 5.0.0 [precision: 8 byte] [memory: block] [mode: optimized] [LP solver: NONE] [GitHash: 3bbd232]
Copyright (C) 2002-2017 Konrad-Zuse-Zentrum fuer Informationstechnik Berlin (ZIB)

External codes: 
  Readline EditLine w  GNU library for command line editing (gnu.org/s/readline)
  CppAD 20160000.1     Algorithmic Differentiation of C++ algorithms developed by B. Bell (www.coin-or.org/CppAD)
  ZLIB 1.2.5           General purpose compression library by J. Gailly and M. Adler (zlib.net)
  GMP 6.1.2            GNU Multiple Precision Arithmetic Library developed by T. Granlund (gmplib.org)

user parameter file <scip.set> not found - using default parameters

read problem <../../Split_data/output/breast/9/3_sample_breast.logreg>
============

File name	:	../../Split_data/output/breast/9/3_sample_breast.logreg
Problem name 	:	3_sample_breast
Number of data	:	155
Number of var	:	33
The given data has linear independence

[dim=1] time: 0.00427
[dim=2] time: 0.009649
[dim=3] time: 0.014985
[dim=4] time: 0.021072
[dim=5] time: 0.025223
[dim=6] time: 0.029283
[dim=7] time: 0.032969
[dim=8] time: 0.036628
[dim=9] time: 0.040329
[dim=10] time: 0.043592
[dim=11] time: 0.049334
[dim=12] Time of forward = 0.052551sec.
AIC: 125.226
k: 11

[dim=33] time: 0.015061
[dim=32] time: 0.031786
[dim=31] time: 0.045677
[dim=30] time: 0.059518
[dim=29] time: 0.074236
[dim=28] time: 0.083942
[dim=27] time: 0.093837
[dim=26] Time of backward = 0.105591sec.
AIC: 122.968
k: 27
